NAME : portcgen-18-32
COMMENT : portcgen N=18, seed=32
TYPE : TSP
DIMENSION : 18
EDGE_WEIGHT_TYPE : EUC_2D
NODE_COORD_SECTION
1 -143607 -443679
2 -16025 -38724
3 -100915 288622
4 237225 -150920
5 -76989 -202813
6 -24074 -201233
7 -74541 177969
8 -7499 75303
9 35811 231017
10 -390734 -60696
11 -311725 54584
12 556574 -234292
13 -326036 35675
14 94923 -135043
15 -116935 -198173
16 -255942 -180643
17 -128119 -139570
18 262745 -132534
